
List of user-set options:

                                    Name   Value                used
                           compl_inf_tol = 1                     yes
                         constr_viol_tol = 1                     yes
                            dual_inf_tol = 1000                  yes
                           linear_solver = ma97                  yes
                              ma86_small = 1e-30                  no
                                  ma86_u = 0.0001                 no
                              ma97_order = best                  yes
                              ma97_small = 1e-30                 yes
                            ma97_switch1 = at_start              yes
                            ma97_switch2 = od_hd_reuse           yes
                                  ma97_u = 1e-06                 yes
                               ma97_umax = 0.5                   yes
                                max_iter = 1000                  yes
                    max_refinement_steps = 20                    yes
                    min_refinement_steps = 5                     yes
                                 mu_init = 1e-06                 yes
           mu_superlinear_decrease_power = 1.25                  yes
                   nlp_scaling_min_value = 1e-08                 yes
                        option_file_name = Preset_Case_592_pf.opt  yes
                             output_file = ./tmp/Preset_Case_592_pf.output  yes
                      print_user_options = yes                   yes
        required_infeasibility_reduction = 1                      no
                                     tol = 1e-08                 yes
                   warm_start_bound_frac = 1e-20                 yes
                   warm_start_bound_push = 1e-20                 yes
                   warm_start_init_point = yes                   yes
              warm_start_mult_bound_push = 1e-20                 yes
                warm_start_mult_init_max = 1e+40                 yes
             warm_start_slack_bound_frac = 1e-20                 yes
             warm_start_slack_bound_push = 1e-20                 yes

******************************************************************************
This program contains Ipopt, a library for large-scale nonlinear optimization.
 Ipopt is released as open source code under the Eclipse Public License (EPL).
         For more information visit http://projects.coin-or.org/Ipopt
******************************************************************************

This is Ipopt version 3.12.10, running with linear solver ma97.

Number of nonzeros in equality constraint Jacobian...:   123442
Number of nonzeros in inequality constraint Jacobian.:      213
Number of nonzeros in Lagrangian Hessian.............:    49069

Total number of variables............................:    31591
                     variables with only lower bounds:    12912
                variables with lower and upper bounds:    15130
                     variables with only upper bounds:        0
Total number of equality constraints.................:    31483
Total number of inequality constraints...............:       25
        inequality constraints with only lower bounds:        4
   inequality constraints with lower and upper bounds:        0
        inequality constraints with only upper bounds:       21

iter    objective    inf_pr   inf_du lg(mu)  ||d||  lg(rg) alpha_du alpha_pr  ls
   0 -5.1456069e+00 4.07e-03 1.02e+00  -6.0 0.00e+00    -  0.00e+00 0.00e+00   0
   1 -5.1451526e+00 1.01e-02 1.02e+00  -6.0 6.76e+05    -  1.12e-04 4.78e-05h  6
   2 -5.1479956e+00 1.01e-02 3.83e+01  -6.0 2.53e+04    -  1.70e-01 1.91e-03h  1
   3 -5.4215832e+00 1.13e+01 2.60e+03  -6.0 2.49e+04    -  1.21e-01 1.86e-01f  1
   4 -5.5901205e+00 1.15e+01 2.28e+03  -6.0 5.19e+03    -  7.47e-02 3.34e-01h  1
   5 -5.6185960e+00 1.85e+01 2.06e+03  -6.0 9.20e+03    -  3.31e-02 9.49e-02h  1
   6 -5.6508299e+00 2.96e+01 1.83e+03  -6.0 6.58e+03    -  1.24e-02 1.16e-01h  1
   7 -5.6186217e+00 6.39e+00 2.49e+02  -6.0 4.08e+00  -4.0 2.73e-01 7.84e-01h  1
   8 -5.6178326e+00 3.88e+00 1.54e+02  -6.0 7.88e+00  -4.5 4.09e-01 3.93e-01h  1
   9 -5.6502248e+00 3.32e+00 1.73e+02  -6.0 5.75e+01  -5.0 1.87e-01 1.43e-01h  1
iter    objective    inf_pr   inf_du lg(mu)  ||d||  lg(rg) alpha_du alpha_pr  ls
  10 -5.7415445e+00 1.70e+00 4.90e+04  -6.0 3.58e+01  -5.4 2.75e-01 1.00e+00h  1
  11 -5.7366009e+00 1.35e+00 5.08e+04  -6.0 1.84e+00  -3.2 9.44e-01 2.08e-01h  1
  12 -5.7372580e+00 1.17e+00 4.29e+04  -6.0 4.70e+00  -3.7 6.06e-01 1.33e-01h  1
  13 -5.7224094e+00 1.80e-02 1.49e+01  -6.0 1.62e+00  -3.3 1.00e+00 1.00e+00h  1
  14 -5.7340929e+00 3.64e-02 8.23e+00  -6.0 2.89e+00  -3.7 1.00e+00 1.00e+00h  1
  15 -5.7446094e+00 5.62e-02 6.05e+02  -6.0 7.70e+00  -4.2 8.40e-01 3.41e-01h  1
  16 -5.7659197e+00 2.86e-01 1.42e+05  -6.0 8.92e+00  -4.7 4.50e-01 9.07e-01h  1
  17 -5.7695555e+00 2.57e-01 2.19e+05  -6.0 1.29e+01  -5.2 4.54e-01 1.19e-01f  1
  18 -5.7750695e+00 2.41e-01 3.15e+05  -6.0 3.28e+01  -5.6 2.69e-01 1.23e-01h  1
  19r-5.7750695e+00 2.41e-01 1.00e+03  -1.1 0.00e+00  -6.1 0.00e+00 1.12e-07R  2
iter    objective    inf_pr   inf_du lg(mu)  ||d||  lg(rg) alpha_du alpha_pr  ls
  20r-5.7754388e+00 2.38e-01 1.00e+03  -1.1 4.24e+03    -  2.80e-05 1.40e-05f  1
  21 -5.7751886e+00 2.06e-01 9.52e+04  -6.0 6.83e-01    -  1.92e-01 1.33e-01h  1
  22 -5.7745177e+00 1.12e-01 8.07e+05  -6.0 6.35e-01    -  1.33e-01 4.58e-01h  1
  23 -5.7741088e+00 1.22e-03 8.79e+03  -6.0 8.18e-01    -  8.07e-01 9.89e-01h  1
  24 -5.7777851e+00 1.22e-03 1.88e+01  -6.0 4.61e+00    -  8.21e-01 1.00e+00f  1
  25 -5.7897963e+00 1.68e-02 2.07e+01  -6.0 2.16e+01    -  6.75e-01 1.00e+00h  1
  26 -5.8000069e+00 2.32e-02 2.47e+01  -6.0 4.71e+01    -  7.77e-01 7.05e-01h  1
  27 -5.8338561e+00 2.80e-01 3.85e+01  -6.0 1.13e+02    -  6.66e-01 1.00e+00f  1
  28 -5.8424869e+00 4.69e-01 3.04e+01  -6.0 2.37e+02    -  3.39e-01 3.01e-01h  1
  29 -5.8634430e+00 4.70e+00 2.40e+01  -6.0 2.48e+02    -  4.14e-01 7.89e-01h  1
iter    objective    inf_pr   inf_du lg(mu)  ||d||  lg(rg) alpha_du alpha_pr  ls
  30 -5.8631267e+00 3.17e+00 3.92e+02  -6.0 1.33e+02    -  5.92e-01 6.77e-01h  1
  31 -5.8707002e+00 1.23e+00 5.56e+02  -6.0 2.94e+02    -  3.70e-01 6.07e-01h  1
  32 -5.8729608e+00 9.90e-01 3.37e+03  -6.0 2.20e+02  -6.6 2.60e-01 5.50e-01h  1
  33 -5.8728224e+00 4.02e-01 1.03e+03  -6.0 3.13e+01  -7.1 8.19e-01 1.00e+00h  1
  34 -5.8789421e+00 1.40e+00 7.50e+02  -6.0 5.92e+02  -7.5 3.55e-01 3.65e-01h  1
  35 -5.8820729e+00 1.10e+00 8.44e+03  -6.0 2.66e+02  -8.0 7.81e-01 3.13e-01h  1
  36 -5.8879078e+00 3.52e+01 7.82e+03  -6.0 8.42e+03    -  1.69e-01 1.44e-01h  1
  37 -5.8906367e+00 3.71e+01 6.85e+03  -6.0 5.36e+03    -  8.32e-02 9.11e-02h  1
  38 -5.8906540e+00 3.71e+01 6.82e+03  -6.0 1.75e+03  -8.5 1.81e-04 9.35e-04h  1
  39 -5.8906551e+00 3.71e+01 6.93e+03  -6.0 8.90e+03    -  3.19e-03 1.48e-04f  1
iter    objective    inf_pr   inf_du lg(mu)  ||d||  lg(rg) alpha_du alpha_pr  ls
  40 -5.9002028e+00 5.98e+01 2.35e+04  -6.0 2.50e+03    -  1.72e-01 6.33e-01f  1
  41 -5.9012822e+00 5.90e+01 2.15e+04  -6.0 3.96e+04    -  1.47e-02 1.23e-02h  1
  42 -5.9018534e+00 5.79e+01 5.55e+03  -6.0 5.94e+03    -  1.50e-01 3.03e-02h  1
  43 -5.9024558e+00 5.64e+01 6.17e+04  -6.0 4.25e+03    -  4.02e-01 3.38e-02h  1
  44 -5.9030064e+00 5.50e+01 9.41e+04  -6.0 4.49e+03    -  1.98e-02 3.37e-02h  1
  45 -5.9038835e+00 5.33e+01 1.52e+06  -6.0 4.67e+03    -  1.71e-03 6.04e-02h  1
  46 -5.9047818e+00 5.19e+01 1.43e+06  -6.0 5.02e+03    -  3.10e-03 5.85e-02h  1
  47 -5.9057166e+00 5.08e+01 1.35e+06  -6.0 5.36e+03    -  5.94e-03 5.83e-02h  1
  48 -5.9065496e+00 4.98e+01 1.28e+06  -6.0 5.71e+03    -  9.96e-03 5.29e-02h  1
  49 -5.9079378e+00 5.30e+01 1.13e+06  -6.0 6.04e+03    -  1.68e-03 1.12e-01h  1
iter    objective    inf_pr   inf_du lg(mu)  ||d||  lg(rg) alpha_du alpha_pr  ls
  50 -5.9083174e+00 5.22e+01 1.11e+06  -6.0 6.58e+03  -8.1 2.16e-03 2.10e-02h  1
  51 -5.9124002e+00 3.91e+01 7.58e+05  -6.0 1.41e+03    -  1.11e-01 3.18e-01h  1
  52 -5.9130156e+00 3.74e+01 7.24e+05  -6.0 1.39e+03    -  2.37e-01 4.46e-02h  1
  53 -5.9140091e+00 3.48e+01 6.73e+05  -6.0 7.53e+02    -  5.54e-01 7.09e-02h  1
  54 -5.9218669e+00 1.83e+01 3.02e+05  -6.0 7.87e+02    -  8.57e-01 5.49e-01h  1
  55 -5.9218671e+00 1.83e+01 3.02e+05  -6.0 1.42e+03    -  2.25e-03 1.29e-05h  1
  56 -5.9278366e+00 1.62e+01 3.02e+05  -6.0 1.42e+03    -  7.70e-01 3.58e-01f  1
  57 -5.9399233e+00 3.63e+01 7.64e+04  -6.0 2.18e+03    -  5.22e-01 6.04e-01h  1
  58r-5.9399233e+00 3.63e+01 1.00e+03   1.5 0.00e+00    -  0.00e+00 3.10e-07R  2
  59r-5.9492701e+00 3.63e+01 1.00e+03   1.5 1.43e+05    -  1.27e-07 7.08e-08f  1
iter    objective    inf_pr   inf_du lg(mu)  ||d||  lg(rg) alpha_du alpha_pr  ls
  60 -5.9490112e+00 3.55e+01 2.13e+04  -6.0 1.04e+02    -  1.08e-06 2.30e-02h  1
  61 -5.9482095e+00 3.30e+01 1.97e+04  -6.0 2.73e+01    -  2.53e-02 7.11e-02h  1
  62 -5.9474525e+00 3.06e+01 1.83e+04  -6.0 1.38e+01    -  1.01e-01 7.10e-02h  1
  63 -5.9428470e+00 1.67e+01 1.00e+04  -6.0 1.28e+01    -  3.03e-01 4.55e-01h  1
  64 -5.9391935e+00 6.99e+00 4.19e+03  -6.0 6.93e+00    -  7.73e-01 5.81e-01h  1
  65 -5.9368546e+00 3.95e-04 8.62e+00  -6.0 3.58e+00    -  9.56e-01 1.00e+00h  1
  66 -5.9396815e+00 2.13e-01 1.49e+01  -6.0 8.79e+02  -6.7 2.35e-01 6.46e-02h  1
  67 -5.9409158e+00 1.56e-01 1.63e+04  -6.0 6.99e+01    -  6.70e-01 2.81e-01h  1
  68 -5.9427766e+00 4.81e-02 2.71e+04  -6.0 3.88e+01    -  5.01e-01 1.00e+00h  1
  69 -5.9425799e+00 3.85e-02 8.22e+03  -6.0 3.94e+01    -  6.80e-01 6.92e-01h  1
iter    objective    inf_pr   inf_du lg(mu)  ||d||  lg(rg) alpha_du alpha_pr  ls
  70 -5.9436976e+00 1.04e-01 8.84e+01  -6.0 5.73e+01    -  9.12e-01 1.00e+00h  1
  71 -5.9437708e+00 6.32e-02 6.10e-01  -6.0 4.47e+01    -  9.38e-01 1.00e+00h  1
  72 -5.9435466e+00 3.12e-02 3.78e+03  -6.0 4.05e+02    -  9.67e-01 1.00e+00H  1
  73 -5.9435391e+00 4.65e-02 4.68e+01  -6.0 7.32e+02    -  9.76e-01 1.00e+00H  1
  74 -5.9435343e+00 5.19e-04 1.26e+01  -6.0 1.28e+02    -  1.00e+00 1.00e+00H  1
  75 -5.9435340e+00 3.15e-04 7.57e-05  -6.0 4.52e+00    -  1.00e+00 1.00e+00h  1
  76 -5.9435340e+00 2.72e-06 4.72e-07  -6.0 4.20e-01    -  1.00e+00 1.00e+00h  1
  77 -5.9436446e+00 3.04e+00 9.87e+00  -7.5 5.72e+02    -  8.10e-01 7.76e-01h  1
  78 -5.9436389e+00 7.20e-01 1.15e+01  -7.5 1.45e+02    -  1.00e+00 8.44e-01h  1
  79 -5.9436353e+00 8.55e-03 1.33e-02  -7.5 2.25e+01    -  1.00e+00 1.00e+00h  1
iter    objective    inf_pr   inf_du lg(mu)  ||d||  lg(rg) alpha_du alpha_pr  ls
  80 -5.9436353e+00 3.97e-08 6.29e-08  -7.5 5.86e-02    -  1.00e+00 1.00e+00h  1
  81 -5.9436368e+00 4.27e-03 7.29e-01  -9.0 1.94e+01    -  9.27e-01 8.48e-01h  1
  82 -5.9436371e+00 1.41e-04 2.00e-04  -9.0 2.98e+00    -  1.00e+00 1.00e+00h  1
  83 -5.9436371e+00 1.92e-10 3.50e-09  -9.0 1.27e-03    -  1.00e+00 1.00e+00h  1

Number of Iterations....: 83

                                   (scaled)                 (unscaled)
Objective...............:  -4.6434664477741352e+00   -5.9436370531508933e+00
Dual infeasibility......:   3.5026614218924628e-09    4.4834066200223527e-09
Constraint violation....:   1.9204799035776876e-10    1.9204799035776876e-10
Complementarity.........:   1.1081169528273446e-09    1.4183896996190012e-09
Overall NLP error.......:   3.5026614218924628e-09    4.4834066200223527e-09


Number of objective function evaluations             = 98
Number of objective gradient evaluations             = 84
Number of equality constraint evaluations            = 98
Number of inequality constraint evaluations          = 98
Number of equality constraint Jacobian evaluations   = 86
Number of inequality constraint Jacobian evaluations = 86
Number of Lagrangian Hessian evaluations             = 83
Total CPU secs in IPOPT (w/o function evaluations)   =    184.651
Total CPU secs in NLP function evaluations           =      3.183

EXIT: Optimal Solution Found.
